<?xml version = "1.0" standalone="yes"?>
<!-- This file has been generated by DOcplex version 2.23.222  -->
<CPLEXSolution version="1.0">
 <header
   problemName="CVRP"
   objectiveValue="18440.9"
  />
 <variables>
  <variable name="x_0_1" index="0" value="1.00000"/>
  <variable name="x_0_4" index="3" value="1.00000"/>
  <variable name="x_0_5" index="4" value="1.00000"/>
  <variable name="x_0_6" index="5" value="1.00000"/>
  <variable name="x_0_8" index="7" value="1.00000"/>
  <variable name="x_0_9" index="8" value="1.00000"/>
  <variable name="x_0_11" index="10" value="1.00000"/>
  <variable name="x_0_13" index="12" value="1.00000"/>
  <variable name="x_0_15" index="14" value="1.00000"/>
  <variable name="x_0_17" index="16" value="1.00000"/>
  <variable name="x_0_21" index="20" value="1.00000"/>
  <variable name="x_0_26" index="25" value="1.00000"/>
  <variable name="x_0_27" index="26" value="1.00000"/>
  <variable name="x_0_29" index="28" value="1.00000"/>
  <variable name="x_0_30" index="29" value="1.00000"/>
  <variable name="x_1_18" index="47" value="1.00000"/>
  <variable name="x_2_16" index="75" value="1.00000"/>
  <variable name="x_3_0" index="90" value="1.00000"/>
  <variable name="x_4_22" index="141" value="1.00000"/>
  <variable name="x_5_19" index="168" value="1.00000"/>
  <variable name="x_6_0" index="180" value="1.00000"/>
  <variable name="x_7_20" index="229" value="1.00000"/>
  <variable name="x_8_0" index="240" value="1.00000"/>
  <variable name="x_9_23" index="292" value="1.00000"/>
  <variable name="x_10_12" index="311" value="1.00000"/>
  <variable name="x_11_24" index="353" value="1.00000"/>
  <variable name="x_12_0" index="360" value="1.00000"/>
  <variable name="x_13_10" index="400" value="1.00000"/>
  <variable name="x_14_0" index="420" value="1.00000"/>
  <variable name="x_15_0" index="450" value="1.00000"/>
  <variable name="x_16_0" index="480" value="1.00000"/>
  <variable name="x_17_25" index="534" value="1.00000"/>
  <variable name="x_18_0" index="540" value="1.00000"/>
  <variable name="x_19_0" index="570" value="1.00000"/>
  <variable name="x_20_0" index="600" value="1.00000"/>
  <variable name="x_21_28" index="657" value="1.00000"/>
  <variable name="x_22_0" index="660" value="1.00000"/>
  <variable name="x_23_0" index="690" value="1.00000"/>
  <variable name="x_24_3" index="723" value="1.00000"/>
  <variable name="x_25_7" index="757" value="1.00000"/>
  <variable name="x_26_0" index="780" value="1.00000"/>
  <variable name="x_27_0" index="810" value="1.00000"/>
  <variable name="x_28_0" index="840" value="1.00000"/>
  <variable name="x_29_2" index="872" value="1.00000"/>
  <variable name="x_30_14" index="914" value="1.00000"/>
  <variable name="u_1" index="930" value="3.00000"/>
  <variable name="u_2" index="931" value="35.00000"/>
  <variable name="u_3" index="932" value="48.00000"/>
  <variable name="u_4" index="933" value="19.00000"/>
  <variable name="u_5" index="934" value="25.00000"/>
  <variable name="u_6" index="935" value="47.00000"/>
  <variable name="u_7" index="936" value="21.00000"/>
  <variable name="u_8" index="937" value="48.00000"/>
  <variable name="u_9" index="938" value="4.00000"/>
  <variable name="u_10" index="939" value="33.00000"/>
  <variable name="u_11" index="940" value="25.00000"/>
  <variable name="u_12" index="941" value="49.00000"/>
  <variable name="u_13" index="942" value="11.00000"/>
  <variable name="u_14" index="943" value="46.00000"/>
  <variable name="u_15" index="944" value="49.00000"/>
  <variable name="u_16" index="945" value="49.00000"/>
  <variable name="u_17" index="946" value="6.00000"/>
  <variable name="u_18" index="947" value="42.00000"/>
  <variable name="u_19" index="948" value="49.00000"/>
  <variable name="u_20" index="949" value="43.00000"/>
  <variable name="u_21" index="950" value="18.00000"/>
  <variable name="u_22" index="951" value="45.00000"/>
  <variable name="u_23" index="952" value="49.00000"/>
  <variable name="u_24" index="953" value="37.00000"/>
  <variable name="u_25" index="954" value="17.00000"/>
  <variable name="u_26" index="955" value="20.00000"/>
  <variable name="u_27" index="956" value="48.00000"/>
  <variable name="u_28" index="957" value="49.00000"/>
  <variable name="u_29" index="958" value="15.00000"/>
  <variable name="u_30" index="959" value="10.00000"/>
 </variables>
</CPLEXSolution>
